N = 10;
D = 5;
N1= 2;
N2 = 3;
N3 = 2;
MaxDT = 5;
MaxDL = 3;
MinDT = 3;
A = 1;
C = 2;
categ = [1, 2, 1, 2, 1, 2, 1, 2, 1, 2];
numcateg = [0, 1, 1];
afin = [| 0, 1, 1, 1, 1, 1, 1, 1, 1, 1
        | 1, 0, 0, 1, 1, 1, 1, 1, 1, 1
        | 1, 0, 0, 1, 0, 1, 1, 1, 1, 1
        | 1, 1, 1, 0, 1, 1, 1, 0, 1, 1
        | 1, 1, 0, 1, 0, 1, 1, 1, 1, 1
        | 1, 1, 1, 1, 1, 0, 1, 1, 0, 1
        | 1, 1, 1, 1, 1, 1, 0, 1, 1, 1
        | 1, 1, 1, 0, 1, 1, 1, 0, 1, 1
        | 1, 1, 1, 1, 1, 0, 1, 1, 0, 1
        | 1, 1, 1, 1, 1, 1, 1, 1, 1, 0|];    
diasPedidos = [| 0, 1, 1, 1, 0
               | 0, 0, 1, 1, 0
               | 0, 0, 0, 1, 0
               | 0, 0, 0, 0, 0
               | 0, 0, 0, 0, 1
               | 1, 0, 0, 0, 0
               | 0, 0, 0, 0, 0
               | 0, 0, 0, 0, 0
               | 0, 0, 0, 0, 0
               | 0, 0, 0, 0, 0|];      
prefTurnos = [0, 2, 0, 0, 3, 0, 1, 0, 2, 	0];